p cnf 120 1516
1 2 3 0
4 5 6 0
7 8 9 0
10 11 12 0
13 14 15 0
16 17 18 0
19 20 21 0
22 23 24 0
25 26 27 0
28 29 30 0
31 32 33 0
34 35 36 0
37 38 39 0
40 41 42 0
43 44 45 0
46 47 48 0
49 50 51 0
52 53 54 0
55 56 57 0
58 59 60 0
61 62 63 0
64 65 66 0
67 68 69 0
70 71 72 0
73 74 75 0
76 77 78 0
79 80 81 0
82 83 84 0
85 86 87 0
88 89 90 0
91 92 93 0
94 95 96 0
97 98 99 0
100 101 102 0
103 104 105 0
106 107 108 0
109 110 111 0
112 113 114 0
115 116 117 0
118 119 120 0
-1 -2 0
-1 -3 0
-2 -3 0
-4 -5 0
-4 -6 0
-5 -6 0
-7 -8 0
-7 -9 0
-8 -9 0
-10 -11 0
-10 -12 0
-11 -12 0
-13 -14 0
-13 -15 0
-14 -15 0
-16 -17 0
-16 -18 0
-17 -18 0
-19 -20 0
-19 -21 0
-20 -21 0
-22 -23 0
-22 -24 0
-23 -24 0
-25 -26 0
-25 -27 0
-26 -27 0
-28 -29 0
-28 -30 0
-29 -30 0
-31 -32 0
-31 -33 0
-32 -33 0
-34 -35 0
-34 -36 0
-35 -36 0
-37 -38 0
-37 -39 0
-38 -39 0
-40 -41 0
-40 -42 0
-41 -42 0
-43 -44 0
-43 -45 0
-44 -45 0
-46 -47 0
-46 -48 0
-47 -48 0
-49 -50 0
-49 -51 0
-50 -51 0
-52 -53 0
-52 -54 0
-53 -54 0
-55 -56 0
-55 -57 0
-56 -57 0
-58 -59 0
-58 -60 0
-59 -60 0
-61 -62 0
-61 -63 0
-62 -63 0
-64 -65 0
-64 -66 0
-65 -66 0
-67 -68 0
-67 -69 0
-68 -69 0
-70 -71 0
-70 -72 0
-71 -72 0
-73 -74 0
-73 -75 0
-74 -75 0
-76 -77 0
-76 -78 0
-77 -78 0
-79 -80 0
-79 -81 0
-80 -81 0
-82 -83 0
-82 -84 0
-83 -84 0
-85 -86 0
-85 -87 0
-86 -87 0
-88 -89 0
-88 -90 0
-89 -90 0
-91 -92 0
-91 -93 0
-92 -93 0
-94 -95 0
-94 -96 0
-95 -96 0
-97 -98 0
-97 -99 0
-98 -99 0
-100 -101 0
-100 -102 0
-101 -102 0
-103 -104 0
-103 -105 0
-104 -105 0
-106 -107 0
-106 -108 0
-107 -108 0
-109 -110 0
-109 -111 0
-110 -111 0
-112 -113 0
-112 -114 0
-113 -114 0
-115 -116 0
-115 -117 0
-116 -117 0
-118 -119 0
-118 -120 0
-119 -120 0
-1 -16 0
-1 -19 0
-1 -22 0
-1 -28 0
-1 -43 0
-1 -52 0
-1 -55 0
-1 -64 0
-1 -76 0
-1 -91 0
-1 -100 0
-1 -106 0
-4 -7 0
-4 -10 0
-4 -22 0
-4 -28 0
-4 -34 0
-4 -49 0
-4 -58 0
-4 -70 0
-4 -73 0
-4 -76 0
-4 -79 0
-4 -82 0
-4 -85 0
-4 -97 0
-7 -4 0
-7 -19 0
-7 -25 0
-7 -28 0
-7 -37 0
-7 -49 0
-7 -58 0
-7 -61 0
-7 -64 0
-7 -94 0
-7 -106 0
-10 -4 0
-10 -13 0
-10 -22 0
-10 -28 0
-10 -52 0
-10 -61 0
-10 -73 0
-10 -88 0
-10 -103 0
-10 -106 0
-10 -112 0
-10 -115 0
-13 -10 0
-13 -22 0
-13 -40 0
-13 -43 0
-13 -49 0
-13 -61 0
-13 -73 0
-13 -85 0
-13 -91 0
-13 -97 0
-13 -100 0
-16 -1 0
-16 -22 0
-16 -34 0
-16 -43 0
-16 -49 0
-16 -55 0
-16 -70 0
-16 -85 0
-16 -97 0
-16 -100 0
-16 -106 0
-19 -1 0
-19 -7 0
-19 -28 0
-19 -43 0
-19 -46 0
-19 -49 0
-19 -67 0
-19 -79 0
-19 -82 0
-19 -91 0
-19 -94 0
-22 -1 0
-22 -4 0
-22 -10 0
-22 -13 0
-22 -16 0
-22 -31 0
-22 -40 0
-22 -43 0
-22 -46 0
-22 -61 0
-22 -76 0
-22 -88 0
-22 -91 0
-22 -103 0
-25 -7 0
-25 -28 0
-25 -37 0
-25 -40 0
-25 -52 0
-25 -61 0
-25 -67 0
-25 -76 0
-25 -79 0
-25 -106 0
-28 -1 0
-28 -4 0
-28 -7 0
-28 -10 0
-28 -19 0
-28 -25 0
-28 -31 0
-28 -58 0
-28 -61 0
-28 -64 0
-28 -79 0
-28 -85 0
-28 -103 0
-31 -22 0
-31 -28 0
-31 -37 0
-31 -61 0
-31 -70 0
-31 -79 0
-31 -82 0
-31 -85 0
-31 -97 0
-31 -109 0
-34 -4 0
-34 -16 0
-34 -37 0
-34 -49 0
-34 -70 0
-34 -73 0
-34 -76 0
-34 -82 0
-34 -91 0
-34 -94 0
-34 -97 0
-34 -112 0
-37 -7 0
-37 -25 0
-37 -31 0
-37 -34 0
-37 -43 0
-37 -67 0
-37 -73 0
-37 -82 0
-37 -91 0
-37 -97 0
-40 -13 0
-40 -22 0
-40 -25 0
-40 -43 0
-40 -61 0
-40 -64 0
-40 -67 0
-40 -70 0
-40 -88 0
-40 -106 0
-43 -1 0
-43 -13 0
-43 -16 0
-43 -19 0
-43 -22 0
-43 -37 0
-43 -40 0
-43 -49 0
-43 -52 0
-43 -55 0
-43 -70 0
-46 -19 0
-46 -22 0
-46 -49 0
-46 -61 0
-46 -64 0
-46 -67 0
-46 -85 0
-46 -88 0
-46 -94 0
-46 -100 0
-46 -103 0
-46 -115 0
-49 -4 0
-49 -7 0
-49 -13 0
-49 -16 0
-49 -19 0
-49 -34 0
-49 -43 0
-49 -46 0
-49 -52 0
-49 -76 0
-49 -79 0
-49 -94 0
-52 -1 0
-52 -10 0
-52 -25 0
-52 -43 0
-52 -49 0
-52 -55 0
-52 -67 0
-52 -79 0
-52 -82 0
-52 -115 0
-55 -1 0
-55 -16 0
-55 -43 0
-55 -52 0
-55 -61 0
-55 -64 0
-55 -70 0
-55 -73 0
-55 -85 0
-55 -97 0
-55 -103 0
-55 -109 0
-58 -4 0
-58 -7 0
-58 -28 0
-58 -61 0
-58 -64 0
-58 -70 0
-58 -82 0
-58 -91 0
-58 -97 0
-58 -103 0
-58 -109 0
-61 -7 0
-61 -10 0
-61 -13 0
-61 -22 0
-61 -25 0
-61 -28 0
-61 -31 0
-61 -40 0
-61 -46 0
-61 -55 0
-61 -58 0
-61 -70 0
-61 -109 0
-64 -1 0
-64 -7 0
-64 -28 0
-64 -40 0
-64 -46 0
-64 -55 0
-64 -58 0
-64 -73 0
-64 -79 0
-64 -82 0
-64 -106 0
-67 -19 0
-67 -25 0
-67 -37 0
-67 -40 0
-67 -46 0
-67 -52 0
-67 -73 0
-67 -76 0
-67 -79 0
-67 -85 0
-67 -91 0
-67 -103 0
-67 -115 0
-70 -4 0
-70 -16 0
-70 -31 0
-70 -34 0
-70 -40 0
-70 -43 0
-70 -55 0
-70 -58 0
-70 -61 0
-70 -88 0
-70 -91 0
-73 -4 0
-73 -10 0
-73 -13 0
-73 -34 0
-73 -37 0
-73 -55 0
-73 -64 0
-73 -67 0
-73 -91 0
-73 -97 0
-73 -106 0
-76 -1 0
-76 -4 0
-76 -22 0
-76 -25 0
-76 -34 0
-76 -49 0
-76 -67 0
-76 -79 0
-76 -85 0
-76 -94 0
-76 -112 0
-79 -4 0
-79 -19 0
-79 -25 0
-79 -28 0
-79 -31 0
-79 -49 0
-79 -52 0
-79 -64 0
-79 -67 0
-79 -76 0
-82 -4 0
-82 -19 0
-82 -31 0
-82 -34 0
-82 -37 0
-82 -52 0
-82 -58 0
-82 -64 0
-82 -85 0
-82 -91 0
-82 -94 0
-85 -4 0
-85 -13 0
-85 -16 0
-85 -28 0
-85 -31 0
-85 -46 0
-85 -55 0
-85 -67 0
-85 -76 0
-85 -82 0
-85 -88 0
-88 -10 0
-88 -22 0
-88 -40 0
-88 -46 0
-88 -70 0
-88 -85 0
-88 -100 0
-88 -103 0
-88 -109 0
-88 -112 0
-91 -1 0
-91 -13 0
-91 -19 0
-91 -22 0
-91 -34 0
-91 -37 0
-91 -58 0
-91 -67 0
-91 -70 0
-91 -73 0
-91 -82 0
-94 -7 0
-94 -19 0
-94 -34 0
-94 -46 0
-94 -49 0
-94 -70 0
-94 -76 0
-94 -82 0
-94 -100 0
-94 -106 0
-94 -115 0
-97 -4 0
-97 -13 0
-97 -16 0
-97 -19 0
-97 -31 0
-97 -34 0
-97 -37 0
-97 -43 0
-97 -55 0
-97 -58 0
-100 -1 0
-100 -4 0
-100 -13 0
-100 -16 0
-100 -46 0
-100 -49 0
-100 -85 0
-100 -88 0
-100 -94 0
-100 -106 0
-100 -115 0
-103 -10 0
-103 -22 0
-103 -28 0
-103 -46 0
-103 -55 0
-103 -58 0
-103 -67 0
-103 -79 0
-103 -82 0
-103 -88 0
-103 -106 0
-103 -115 0
-106 -1 0
-106 -7 0
-106 -10 0
-106 -13 0
-106 -16 0
-106 -25 0
-106 -40 0
-106 -64 0
-106 -73 0
-106 -94 0
-106 -100 0
-106 -103 0
-106 -115 0
-109 -31 0
-109 -40 0
-109 -55 0
-109 -58 0
-109 -61 0
-109 -64 0
-109 -73 0
-109 -88 0
-109 -115 0
-112 -1 0
-112 -10 0
-112 -22 0
-112 -25 0
-112 -28 0
-112 -31 0
-112 -34 0
-112 -37 0
-112 -55 0
-112 -58 0
-112 -76 0
-115 -7 0
-115 -10 0
-115 -34 0
-115 -46 0
-115 -52 0
-115 -67 0
-115 -88 0
-115 -91 0
-115 -94 0
-115 -100 0
-115 -103 0
-115 -106 0
-118 -10 0
-118 -16 0
-118 -46 0
-118 -52 0
-118 -61 0
-118 -67 0
-118 -76 0
-118 -94 0
-118 -100 0
-118 -103 0
-118 -106 0
-2 -17 0
-2 -20 0
-2 -23 0
-2 -29 0
-2 -44 0
-2 -53 0
-2 -56 0
-2 -65 0
-2 -77 0
-2 -92 0
-2 -101 0
-2 -107 0
-5 -8 0
-5 -11 0
-5 -23 0
-5 -29 0
-5 -35 0
-5 -50 0
-5 -59 0
-5 -71 0
-5 -74 0
-5 -77 0
-5 -80 0
-5 -83 0
-5 -86 0
-5 -98 0
-8 -5 0
-8 -20 0
-8 -26 0
-8 -29 0
-8 -38 0
-8 -50 0
-8 -59 0
-8 -62 0
-8 -65 0
-8 -95 0
-8 -107 0
-11 -5 0
-11 -14 0
-11 -23 0
-11 -29 0
-11 -53 0
-11 -62 0
-11 -74 0
-11 -89 0
-11 -104 0
-11 -107 0
-11 -113 0
-11 -116 0
-14 -11 0
-14 -23 0
-14 -41 0
-14 -44 0
-14 -50 0
-14 -62 0
-14 -74 0
-14 -86 0
-14 -92 0
-14 -98 0
-14 -101 0
-17 -2 0
-17 -23 0
-17 -35 0
-17 -44 0
-17 -50 0
-17 -56 0
-17 -71 0
-17 -86 0
-17 -98 0
-17 -101 0
-17 -107 0
-20 -2 0
-20 -8 0
-20 -29 0
-20 -44 0
-20 -47 0
-20 -50 0
-20 -68 0
-20 -80 0
-20 -83 0
-20 -92 0
-20 -95 0
-23 -2 0
-23 -5 0
-23 -11 0
-23 -14 0
-23 -17 0
-23 -32 0
-23 -41 0
-23 -44 0
-23 -47 0
-23 -62 0
-23 -77 0
-23 -89 0
-23 -92 0
-23 -104 0
-26 -8 0
-26 -29 0
-26 -38 0
-26 -41 0
-26 -53 0
-26 -62 0
-26 -68 0
-26 -77 0
-26 -80 0
-26 -107 0
-29 -2 0
-29 -5 0
-29 -8 0
-29 -11 0
-29 -20 0
-29 -26 0
-29 -32 0
-29 -59 0
-29 -62 0
-29 -65 0
-29 -80 0
-29 -86 0
-29 -104 0
-32 -23 0
-32 -29 0
-32 -38 0
-32 -62 0
-32 -71 0
-32 -80 0
-32 -83 0
-32 -86 0
-32 -98 0
-32 -110 0
-35 -5 0
-35 -17 0
-35 -38 0
-35 -50 0
-35 -71 0
-35 -74 0
-35 -77 0
-35 -83 0
-35 -92 0
-35 -95 0
-35 -98 0
-35 -113 0
-38 -8 0
-38 -26 0
-38 -32 0
-38 -35 0
-38 -44 0
-38 -68 0
-38 -74 0
-38 -83 0
-38 -92 0
-38 -98 0
-41 -14 0
-41 -23 0
-41 -26 0
-41 -44 0
-41 -62 0
-41 -65 0
-41 -68 0
-41 -71 0
-41 -89 0
-41 -107 0
-44 -2 0
-44 -14 0
-44 -17 0
-44 -20 0
-44 -23 0
-44 -38 0
-44 -41 0
-44 -50 0
-44 -53 0
-44 -56 0
-44 -71 0
-47 -20 0
-47 -23 0
-47 -50 0
-47 -62 0
-47 -65 0
-47 -68 0
-47 -86 0
-47 -89 0
-47 -95 0
-47 -101 0
-47 -104 0
-47 -116 0
-50 -5 0
-50 -8 0
-50 -14 0
-50 -17 0
-50 -20 0
-50 -35 0
-50 -44 0
-50 -47 0
-50 -53 0
-50 -77 0
-50 -80 0
-50 -95 0
-53 -2 0
-53 -11 0
-53 -26 0
-53 -44 0
-53 -50 0
-53 -56 0
-53 -68 0
-53 -80 0
-53 -83 0
-53 -116 0
-56 -2 0
-56 -17 0
-56 -44 0
-56 -53 0
-56 -62 0
-56 -65 0
-56 -71 0
-56 -74 0
-56 -86 0
-56 -98 0
-56 -104 0
-56 -110 0
-59 -5 0
-59 -8 0
-59 -29 0
-59 -62 0
-59 -65 0
-59 -71 0
-59 -83 0
-59 -92 0
-59 -98 0
-59 -104 0
-59 -110 0
-62 -8 0
-62 -11 0
-62 -14 0
-62 -23 0
-62 -26 0
-62 -29 0
-62 -32 0
-62 -41 0
-62 -47 0
-62 -56 0
-62 -59 0
-62 -71 0
-62 -110 0
-65 -2 0
-65 -8 0
-65 -29 0
-65 -41 0
-65 -47 0
-65 -56 0
-65 -59 0
-65 -74 0
-65 -80 0
-65 -83 0
-65 -107 0
-68 -20 0
-68 -26 0
-68 -38 0
-68 -41 0
-68 -47 0
-68 -53 0
-68 -74 0
-68 -77 0
-68 -80 0
-68 -86 0
-68 -92 0
-68 -104 0
-68 -116 0
-71 -5 0
-71 -17 0
-71 -32 0
-71 -35 0
-71 -41 0
-71 -44 0
-71 -56 0
-71 -59 0
-71 -62 0
-71 -89 0
-71 -92 0
-74 -5 0
-74 -11 0
-74 -14 0
-74 -35 0
-74 -38 0
-74 -56 0
-74 -65 0
-74 -68 0
-74 -92 0
-74 -98 0
-74 -107 0
-77 -2 0
-77 -5 0
-77 -23 0
-77 -26 0
-77 -35 0
-77 -50 0
-77 -68 0
-77 -80 0
-77 -86 0
-77 -95 0
-77 -113 0
-80 -5 0
-80 -20 0
-80 -26 0
-80 -29 0
-80 -32 0
-80 -50 0
-80 -53 0
-80 -65 0
-80 -68 0
-80 -77 0
-83 -5 0
-83 -20 0
-83 -32 0
-83 -35 0
-83 -38 0
-83 -53 0
-83 -59 0
-83 -65 0
-83 -86 0
-83 -92 0
-83 -95 0
-86 -5 0
-86 -14 0
-86 -17 0
-86 -29 0
-86 -32 0
-86 -47 0
-86 -56 0
-86 -68 0
-86 -77 0
-86 -83 0
-86 -89 0
-89 -11 0
-89 -23 0
-89 -41 0
-89 -47 0
-89 -71 0
-89 -86 0
-89 -101 0
-89 -104 0
-89 -110 0
-89 -113 0
-92 -2 0
-92 -14 0
-92 -20 0
-92 -23 0
-92 -35 0
-92 -38 0
-92 -59 0
-92 -68 0
-92 -71 0
-92 -74 0
-92 -83 0
-95 -8 0
-95 -20 0
-95 -35 0
-95 -47 0
-95 -50 0
-95 -71 0
-95 -77 0
-95 -83 0
-95 -101 0
-95 -107 0
-95 -116 0
-98 -5 0
-98 -14 0
-98 -17 0
-98 -20 0
-98 -32 0
-98 -35 0
-98 -38 0
-98 -44 0
-98 -56 0
-98 -59 0
-101 -2 0
-101 -5 0
-101 -14 0
-101 -17 0
-101 -47 0
-101 -50 0
-101 -86 0
-101 -89 0
-101 -95 0
-101 -107 0
-101 -116 0
-104 -11 0
-104 -23 0
-104 -29 0
-104 -47 0
-104 -56 0
-104 -59 0
-104 -68 0
-104 -80 0
-104 -83 0
-104 -89 0
-104 -107 0
-104 -116 0
-107 -2 0
-107 -8 0
-107 -11 0
-107 -14 0
-107 -17 0
-107 -26 0
-107 -41 0
-107 -65 0
-107 -74 0
-107 -95 0
-107 -101 0
-107 -104 0
-107 -116 0
-110 -32 0
-110 -41 0
-110 -56 0
-110 -59 0
-110 -62 0
-110 -65 0
-110 -74 0
-110 -89 0
-110 -116 0
-113 -2 0
-113 -11 0
-113 -23 0
-113 -26 0
-113 -29 0
-113 -32 0
-113 -35 0
-113 -38 0
-113 -56 0
-113 -59 0
-113 -77 0
-116 -8 0
-116 -11 0
-116 -35 0
-116 -47 0
-116 -53 0
-116 -68 0
-116 -89 0
-116 -92 0
-116 -95 0
-116 -101 0
-116 -104 0
-116 -107 0
-119 -11 0
-119 -17 0
-119 -47 0
-119 -53 0
-119 -62 0
-119 -68 0
-119 -77 0
-119 -95 0
-119 -101 0
-119 -104 0
-119 -107 0
-3 -18 0
-3 -21 0
-3 -24 0
-3 -30 0
-3 -45 0
-3 -54 0
-3 -57 0
-3 -66 0
-3 -78 0
-3 -93 0
-3 -102 0
-3 -108 0
-6 -9 0
-6 -12 0
-6 -24 0
-6 -30 0
-6 -36 0
-6 -51 0
-6 -60 0
-6 -72 0
-6 -75 0
-6 -78 0
-6 -81 0
-6 -84 0
-6 -87 0
-6 -99 0
-9 -6 0
-9 -21 0
-9 -27 0
-9 -30 0
-9 -39 0
-9 -51 0
-9 -60 0
-9 -63 0
-9 -66 0
-9 -96 0
-9 -108 0
-12 -6 0
-12 -15 0
-12 -24 0
-12 -30 0
-12 -54 0
-12 -63 0
-12 -75 0
-12 -90 0
-12 -105 0
-12 -108 0
-12 -114 0
-12 -117 0
-15 -12 0
-15 -24 0
-15 -42 0
-15 -45 0
-15 -51 0
-15 -63 0
-15 -75 0
-15 -87 0
-15 -93 0
-15 -99 0
-15 -102 0
-18 -3 0
-18 -24 0
-18 -36 0
-18 -45 0
-18 -51 0
-18 -57 0
-18 -72 0
-18 -87 0
-18 -99 0
-18 -102 0
-18 -108 0
-21 -3 0
-21 -9 0
-21 -30 0
-21 -45 0
-21 -48 0
-21 -51 0
-21 -69 0
-21 -81 0
-21 -84 0
-21 -93 0
-21 -96 0
-24 -3 0
-24 -6 0
-24 -12 0
-24 -15 0
-24 -18 0
-24 -33 0
-24 -42 0
-24 -45 0
-24 -48 0
-24 -63 0
-24 -78 0
-24 -90 0
-24 -93 0
-24 -105 0
-27 -9 0
-27 -30 0
-27 -39 0
-27 -42 0
-27 -54 0
-27 -63 0
-27 -69 0
-27 -78 0
-27 -81 0
-27 -108 0
-30 -3 0
-30 -6 0
-30 -9 0
-30 -12 0
-30 -21 0
-30 -27 0
-30 -33 0
-30 -60 0
-30 -63 0
-30 -66 0
-30 -81 0
-30 -87 0
-30 -105 0
-33 -24 0
-33 -30 0
-33 -39 0
-33 -63 0
-33 -72 0
-33 -81 0
-33 -84 0
-33 -87 0
-33 -99 0
-33 -111 0
-36 -6 0
-36 -18 0
-36 -39 0
-36 -51 0
-36 -72 0
-36 -75 0
-36 -78 0
-36 -84 0
-36 -93 0
-36 -96 0
-36 -99 0
-36 -114 0
-39 -9 0
-39 -27 0
-39 -33 0
-39 -36 0
-39 -45 0
-39 -69 0
-39 -75 0
-39 -84 0
-39 -93 0
-39 -99 0
-42 -15 0
-42 -24 0
-42 -27 0
-42 -45 0
-42 -63 0
-42 -66 0
-42 -69 0
-42 -72 0
-42 -90 0
-42 -108 0
-45 -3 0
-45 -15 0
-45 -18 0
-45 -21 0
-45 -24 0
-45 -39 0
-45 -42 0
-45 -51 0
-45 -54 0
-45 -57 0
-45 -72 0
-48 -21 0
-48 -24 0
-48 -51 0
-48 -63 0
-48 -66 0
-48 -69 0
-48 -87 0
-48 -90 0
-48 -96 0
-48 -102 0
-48 -105 0
-48 -117 0
-51 -6 0
-51 -9 0
-51 -15 0
-51 -18 0
-51 -21 0
-51 -36 0
-51 -45 0
-51 -48 0
-51 -54 0
-51 -78 0
-51 -81 0
-51 -96 0
-54 -3 0
-54 -12 0
-54 -27 0
-54 -45 0
-54 -51 0
-54 -57 0
-54 -69 0
-54 -81 0
-54 -84 0
-54 -117 0
-57 -3 0
-57 -18 0
-57 -45 0
-57 -54 0
-57 -63 0
-57 -66 0
-57 -72 0
-57 -75 0
-57 -87 0
-57 -99 0
-57 -105 0
-57 -111 0
-60 -6 0
-60 -9 0
-60 -30 0
-60 -63 0
-60 -66 0
-60 -72 0
-60 -84 0
-60 -93 0
-60 -99 0
-60 -105 0
-60 -111 0
-63 -9 0
-63 -12 0
-63 -15 0
-63 -24 0
-63 -27 0
-63 -30 0
-63 -33 0
-63 -42 0
-63 -48 0
-63 -57 0
-63 -60 0
-63 -72 0
-63 -111 0
-66 -3 0
-66 -9 0
-66 -30 0
-66 -42 0
-66 -48 0
-66 -57 0
-66 -60 0
-66 -75 0
-66 -81 0
-66 -84 0
-66 -108 0
-69 -21 0
-69 -27 0
-69 -39 0
-69 -42 0
-69 -48 0
-69 -54 0
-69 -75 0
-69 -78 0
-69 -81 0
-69 -87 0
-69 -93 0
-69 -105 0
-69 -117 0
-72 -6 0
-72 -18 0
-72 -33 0
-72 -36 0
-72 -42 0
-72 -45 0
-72 -57 0
-72 -60 0
-72 -63 0
-72 -90 0
-72 -93 0
-75 -6 0
-75 -12 0
-75 -15 0
-75 -36 0
-75 -39 0
-75 -57 0
-75 -66 0
-75 -69 0
-75 -93 0
-75 -99 0
-75 -108 0
-78 -3 0
-78 -6 0
-78 -24 0
-78 -27 0
-78 -36 0
-78 -51 0
-78 -69 0
-78 -81 0
-78 -87 0
-78 -96 0
-78 -114 0
-81 -6 0
-81 -21 0
-81 -27 0
-81 -30 0
-81 -33 0
-81 -51 0
-81 -54 0
-81 -66 0
-81 -69 0
-81 -78 0
-84 -6 0
-84 -21 0
-84 -33 0
-84 -36 0
-84 -39 0
-84 -54 0
-84 -60 0
-84 -66 0
-84 -87 0
-84 -93 0
-84 -96 0
-87 -6 0
-87 -15 0
-87 -18 0
-87 -30 0
-87 -33 0
-87 -48 0
-87 -57 0
-87 -69 0
-87 -78 0
-87 -84 0
-87 -90 0
-90 -12 0
-90 -24 0
-90 -42 0
-90 -48 0
-90 -72 0
-90 -87 0
-90 -102 0
-90 -105 0
-90 -111 0
-90 -114 0
-93 -3 0
-93 -15 0
-93 -21 0
-93 -24 0
-93 -36 0
-93 -39 0
-93 -60 0
-93 -69 0
-93 -72 0
-93 -75 0
-93 -84 0
-96 -9 0
-96 -21 0
-96 -36 0
-96 -48 0
-96 -51 0
-96 -72 0
-96 -78 0
-96 -84 0
-96 -102 0
-96 -108 0
-96 -117 0
-99 -6 0
-99 -15 0
-99 -18 0
-99 -21 0
-99 -33 0
-99 -36 0
-99 -39 0
-99 -45 0
-99 -57 0
-99 -60 0
-102 -3 0
-102 -6 0
-102 -15 0
-102 -18 0
-102 -48 0
-102 -51 0
-102 -87 0
-102 -90 0
-102 -96 0
-102 -108 0
-102 -117 0
-105 -12 0
-105 -24 0
-105 -30 0
-105 -48 0
-105 -57 0
-105 -60 0
-105 -69 0
-105 -81 0
-105 -84 0
-105 -90 0
-105 -108 0
-105 -117 0
-108 -3 0
-108 -9 0
-108 -12 0
-108 -15 0
-108 -18 0
-108 -27 0
-108 -42 0
-108 -66 0
-108 -75 0
-108 -96 0
-108 -102 0
-108 -105 0
-108 -117 0
-111 -33 0
-111 -42 0
-111 -57 0
-111 -60 0
-111 -63 0
-111 -66 0
-111 -75 0
-111 -90 0
-111 -117 0
-114 -3 0
-114 -12 0
-114 -24 0
-114 -27 0
-114 -30 0
-114 -33 0
-114 -36 0
-114 -39 0
-114 -57 0
-114 -60 0
-114 -78 0
-117 -9 0
-117 -12 0
-117 -36 0
-117 -48 0
-117 -54 0
-117 -69 0
-117 -90 0
-117 -93 0
-117 -96 0
-117 -102 0
-117 -105 0
-117 -108 0
-120 -12 0
-120 -18 0
-120 -48 0
-120 -54 0
-120 -63 0
-120 -69 0
-120 -78 0
-120 -96 0
-120 -102 0
-120 -105 0
-120 -108 0
